c Reduced graph for p24 generated by Cyril Grelier
p edge 31 94
e 1 2
e 1 6
e 1 11
e 1 21
e 1 28
e 1 29
e 1 31
e 2 11
e 2 21
e 2 23
e 3 4
e 3 11
e 3 19
e 3 22
e 3 24
e 3 29
e 4 11
e 4 17
e 4 22
e 4 23
e 4 25
e 4 26
e 4 31
e 5 8
e 5 9
e 5 17
e 5 20
e 5 22
e 5 24
e 5 28
e 6 16
e 6 28
e 6 29
e 6 31
e 7 9
e 7 12
e 7 13
e 7 15
e 7 25
e 7 30
e 8 10
e 8 20
e 8 22
e 8 26
e 8 28
e 9 17
e 9 24
e 9 30
e 10 12
e 10 26
e 11 21
e 11 22
e 12 13
e 12 15
e 12 25
e 13 15
e 13 18
e 13 25
e 13 27
e 14 15
e 14 19
e 14 27
e 14 30
e 15 25
e 16 18
e 16 20
e 16 21
e 17 23
e 17 24
e 17 25
e 17 26
e 17 31
e 18 20
e 18 21
e 18 27
e 19 24
e 19 27
e 19 29
e 19 30
e 20 21
e 20 22
e 20 28
e 22 28
e 23 25
e 23 26
e 23 31
e 24 29
e 25 26
e 25 31
e 26 31
e 27 30
e 28 29
e 28 31
e 29 31
